c pcminimize - minimizing a CNF with respect to propagation completeness by iterative removing of absorbed clauses.
c Petr Kucera, 2016-2021
c Version 2.7, revision 59, git hash 4910a71, date 2024-07-16 20:17:42 +0200
p cnf 384 554
-232 -252 0
251 -252 0
252 -253 0
213 -253 0
111 -255 0
254 -255 0
255 -256 0
-213 -256 0
253 256 -257 0
257 -258 0
231 -258 0
111 -259 0
-213 -259 0
259 -260 0
254 -260 0
260 -261 0
-231 -261 0
258 261 -262 0
23 -263 0
31 -263 0
102 -263 0
263 -265 0
264 -265 0
265 -266 0
221 -266 0
264 -267 0
23 -267 0
-154 -268 0
-23 -268 0
267 268 -269 0
269 -272 0
270 -272 0
271 -272 0
272 -273 0
-221 -273 0
266 273 -274 0
262 -276 0
274 -276 0
83 -276 0
275 -276 0
276 -277 0
49 -277 0
275 -278 0
83 -278 0
172 -279 0
-83 -279 0
278 279 -280 0
231 -281 0
-232 -281 0
280 -282 0
281 -282 0
282 -283 0
251 -283 0
283 -284 0
213 -284 0
275 -286 0
285 -286 0
286 -287 0
83 -287 0
172 -288 0
231 -288 0
275 -289 0
-231 -289 0
288 289 -290 0
290 -291 0
-83 -291 0
287 291 -292 0
292 -293 0
111 -293 0
293 -294 0
254 -294 0
294 -295 0
-213 -295 0
284 295 -296 0
-23 -297 0
-154 -297 0
270 -298 0
271 -298 0
296 -299 0
297 -299 0
298 -299 0
299 -300 0
-49 -300 0
302 -303 0
303 -304 0
104 -304 0
166 -306 0
305 -306 0
306 -307 0
-104 -307 0
304 307 -308 0
308 -309 0
212 -309 0
-166 -310 0
310 -311 0
-212 -311 0
-81 -313 0
-189 -313 0
204 -313 0
314 -316 0
315 -316 0
301 -317 0
312 -317 0
316 -317 0
38 -318 0
-166 -319 0
189 -319 0
302 -320 0
-189 -320 0
319 320 -321 0
321 -322 0
212 -322 0
-166 -324 0
323 -324 0
324 -325 0
-212 -325 0
322 325 -326 0
-6 -327 0
-43 -327 0
-204 -327 0
326 -329 0
327 -329 0
328 -329 0
329 -331 0
330 -331 0
331 -332 0
149 -332 0
-81 -333 0
315 -333 0
333 -334 0
204 -334 0
-6 -335 0
328 -335 0
335 -336 0
-204 -336 0
334 336 -337 0
302 -338 0
212 -338 0
-166 -339 0
-212 -339 0
338 339 -340 0
-189 -341 0
337 -342 0
340 -342 0
341 -342 0
342 -343 0
314 -343 0
343 -344 0
-149 -344 0
-23 -346 0
-154 -346 0
270 -347 0
271 -347 0
345 -348 0
296 -348 0
347 -348 0
-38 -349 0
351 -352 0
200 -352 0
-200 -353 0
76 -355 0
356 -357 0
-76 -357 0
359 -360 0
14 -360 0
-14 -361 0
364 -372 0
365 -372 0
366 -372 0
367 -372 0
368 -372 0
369 -372 0
370 -372 0
371 -372 0
350 -373 0
354 -373 0
358 -373 0
362 -373 0
372 -373 0
1 0
-2 0
-3 0
4 0
-7 0
8 0
-9 0
-10 0
11 0
12 0
-13 0
15 0
16 0
-17 0
18 0
19 0
21 0
22 0
-24 0
25 0
-26 0
-28 0
29 0
30 0
-32 0
33 0
34 0
-35 0
-36 0
37 0
39 0
-40 0
41 0
-42 0
44 0
-45 0
46 0
47 0
-48 0
-50 0
-51 0
52 0
-53 0
54 0
55 0
-56 0
-58 0
59 0
-60 0
61 0
62 0
-63 0
-64 0
-65 0
66 0
-67 0
68 0
-69 0
70 0
-71 0
72 0
-73 0
-74 0
75 0
77 0
-78 0
-79 0
80 0
-82 0
-84 0
-85 0
-86 0
-87 0
88 0
89 0
-90 0
-91 0
92 0
-93 0
94 0
-95 0
-96 0
-97 0
-98 0
99 0
100 0
103 0
105 0
106 0
107 0
108 0
109 0
110 0
112 0
-113 0
-114 0
115 0
116 0
-118 0
119 0
-120 0
-121 0
122 0
123 0
124 0
125 0
127 0
128 0
-129 0
130 0
-131 0
-132 0
-133 0
134 0
135 0
-136 0
-137 0
-138 0
-139 0
-140 0
141 0
-143 0
144 0
145 0
-146 0
-147 0
-148 0
-150 0
-151 0
152 0
153 0
155 0
156 0
157 0
158 0
-159 0
-160 0
-161 0
162 0
-163 0
164 0
165 0
167 0
-168 0
-169 0
170 0
171 0
-174 0
175 0
-176 0
177 0
178 0
180 0
-181 0
182 0
183 0
-184 0
185 0
186 0
187 0
-190 0
191 0
192 0
193 0
194 0
196 0
197 0
-198 0
-199 0
-201 0
-202 0
203 0
-205 0
206 0
207 0
-208 0
209 0
-210 0
-214 0
215 0
216 0
217 0
-218 0
-219 0
220 0
222 0
-223 0
-224 0
225 0
-226 0
-227 0
-228 0
-229 0
-230 0
-233 0
-234 0
235 0
236 0
237 0
238 0
239 0
-240 0
241 0
-242 0
243 0
-244 0
245 0
246 0
-247 0
-248 0
-249 0
250 0
-380 381 0
-378 380 0
-105 378 0
-363 373 0
-375 376 0
-330 331 0
-326 329 0
-323 324 0
-232 254 0
-319 321 0
-286 287 0
-320 321 0
-297 299 0
43 314 327 0
-221 266 0
-313 317 0
-213 253 284 0
-382 384 0
-281 282 0
-328 329 335 0
212 311 325 339 0
-310 311 0
-212 309 322 338 0
-276 277 0
-344 345 0
-339 340 0
81 313 328 333 0
-305 306 0
-303 304 0
-309 312 0
-301 317 0
-322 326 0
-311 312 0
-300 301 0
-331 332 0
-327 329 0
-298 299 0
-296 299 348 0
-302 303 320 338 0
-291 292 0
-317 318 0
204 327 336 0
104 307 0
-289 290 0
-324 325 0
-316 317 0
-57 359 0
154 264 268 297 346 0
-341 342 0
-43 314 0
-270 272 298 347 0
101 305 0
-23 263 267 0
-338 340 0
-315 316 333 0
-274 276 0
-264 265 267 0
-347 348 0
179 330 0
-76 355 0
-260 261 0
31 270 0
-166 302 306 0
-61 313 346 0
-335 336 0
-259 260 0
-304 308 0
-293 294 0
-231 258 281 285 288 0
-31 263 270 0
231 261 285 289 0
-258 262 0
-333 334 0
232 252 254 281 0
-282 283 0
-255 256 0
-268 269 0
-104 304 310 346 0
-204 313 334 0
111 251 0
-351 352 0
9 382 0
-265 266 0
200 353 0
-111 251 255 259 293 0
-306 307 0
-292 293 0
-102 263 271 0
-49 277 0
-263 265 0
-261 262 0
83 279 291 0
-312 317 0
-267 269 0
-254 255 260 294 0
6 315 327 335 0
-154 264 0
-256 257 0
23 268 297 346 0
-272 273 0
-271 272 298 347 0
-329 331 0
-288 290 0
-273 274 0
-179 313 330 341 0
-253 257 0
-269 272 0
-83 276 278 287 0
166 302 310 319 324 339 0
-275 276 278 286 289 0
-277 301 0
-308 309 0
-294 295 0
-279 280 0
-307 308 0
-278 280 0
-376 377 0
-283 284 0
-295 296 0
-280 282 0
-252 253 0
-314 316 343 0
5 351 0
-6 315 0
-285 286 0
-262 276 0
-149 332 0
-299 300 0
-334 337 0
-290 291 0
-336 337 0
-337 342 0
-340 342 0
-284 296 0
-342 343 0
-343 344 0
-172 275 279 288 0
-345 348 0
-80 374 0
172 275 0
-348 349 0
-81 328 0
-200 352 0
-189 319 323 0
-325 326 0
102 271 0
-195 356 0
76 357 0
213 256 259 295 0
-346 348 0
-359 360 0
-14 360 0
14 361 0
-356 357 0
-251 252 283 0
-321 322 0
-257 258 0
-287 292 0
208 383 0
-19 379 0
-222 375 0
-266 274 0
140 363 0
